(set-info :Origin "This instance was generated by: BanditFuzz-- an RL fuzzer for SMT solvers" )
(set-info :Author "Joe Scott, Fed Mora, Vijay Ganesh" )
(set-info :Contact "Joe Scott, joseph.scott@uwaterloo.ca")
(set-logic QF_BV)
(declare-const bool_0 Bool)
(declare-const bool_1 Bool)
(declare-const bool_2 Bool)
(declare-const bool_3 Bool)
(declare-const bool_4 Bool)
(declare-const bv_0 (_ BitVec 32))
(declare-const bv_1 (_ BitVec 32))
(declare-const bv_2 (_ BitVec 32))
(declare-const bv_3 (_ BitVec 32))
(declare-const bv_4 (_ BitVec 32))
(assert (bvugt (bvnand (bvsmod bv_4 #xffdf2fd4 ) (bvsrem bv_2 #xa4dd8fac )) (bvsub (bvurem #x0f251110  bv_4) (bvlshr bv_1 #x61d6b152 ))))
(assert (bvslt (bvlshr (bvadd #xf4fa2ddf  #x757dd8bf ) (bvadd #xd6a459a7  #x124a13b9 )) (bvshl (bvurem #xb739ad17  bv_3) (bvudiv bv_2 #x3ffd446d ))))
(assert (bvule (bvnand (bvnand bv_1 bv_1) (bvmul bv_0 bv_0)) (bvsrem (bvmul bv_0 bv_3) (bvxor bv_2 bv_4))))
(assert (bvslt (bvshl (bvmul bv_4 #x0a8b3d49 ) (bvsrem #xae0c6352  #x79920f27 )) (bvashr (bvmul bv_4 bv_4) (bvshl #xf4323c00  #xbbfb0f25 ))))
(assert (bvsgt (bvudiv (bvxnor bv_3 bv_0) (bvor bv_4 bv_2)) (bvadd (bvshl bv_3 #xf2e6c646 ) (bvsrem #x08e62e3e  #xb83a5615 ))))
(check-sat)
(exit)
